z3/79.out
STDOUT:
sat
(
  (define-fun inv ((x!0 Int) (x!1 Int) (x!2 Int)) Bool
    (<= (+ x!2 (* (- 1) x!1)) 0))
)


STDERR:
